% seed = 8502228

mint = 63;
% maxt = 219;

nActs = 42;
dur = [0,1,4,10,1,1,4,10,6,8,3,10,8,1,4,8,7,2,5,8,7,5,8,7,7,4,2,2,1,2,10,3,4,6,5,10,1,9,6,10,9,0];

nSkills = 4;
sreq = [| 0,0,0,0,
	| 5,0,5,0,
	| 5,2,0,0,
	| 0,0,4,2,
	| 0,3,0,3,
	| 0,0,5,5,
	| 2,0,0,6,
	| 0,2,0,7,
	| 5,5,0,0,
	| 1,3,0,0,
	| 0,0,6,6,
	| 4,0,0,7,
	| 6,0,0,2,
	| 0,2,2,0,
	| 6,5,0,0,
	| 0,0,5,4,
	| 0,6,0,6,
	| 0,0,3,3,
	| 0,4,2,0,
	| 6,0,0,3,
	| 0,1,0,6,
	| 2,0,6,0,
	| 3,0,2,0,
	| 5,0,2,0,
	| 4,2,0,0,
	| 0,5,0,3,
	| 0,3,2,0,
	| 0,0,5,4,
	| 1,0,0,6,
	| 7,1,0,0,
	| 4,0,6,0,
	| 5,0,0,3,
	| 2,0,0,3,
	| 0,0,4,5,
	| 0,4,0,3,
	| 0,7,0,4,
	| 0,5,0,2,
	| 0,0,1,6,
	| 6,4,0,0,
	| 3,0,0,5,
	| 4,6,0,0,
	| 0,0,0,0, |];

nResources = 30;
mastery = [| false,false,false,true,
	| true,true,false,true,
	| true,false,false,true,
	| false,true,true,true,
	| false,false,false,true,
	| false,false,false,true,
	| false,true,false,true,
	| true,false,true,false,
	| true,false,false,false,
	| true,true,false,true,
	| false,true,false,true,
	| true,true,true,false,
	| false,true,false,false,
	| true,true,false,true,
	| false,true,false,true,
	| true,true,false,true,
	| true,true,true,false,
	| true,true,false,true,
	| true,true,false,true,
	| false,true,true,false,
	| true,true,true,false,
	| true,true,true,false,
	| false,true,false,true,
	| true,false,true,false,
	| true,true,true,false,
	| true,false,true,false,
	| false,false,true,false,
	| false,false,true,false,
	| true,false,true,true,
	| true,true,true,false, |];

nPrecs = 85;
pred = [1,1,1,2,2,2,3,3,3,4,4,4,5,5,5,6,6,7,7,7,8,8,8,9,9,9,10,10,10,11,11,12,13,13,13,14,14,14,15,15,15,16,16,16,17,17,17,18,18,18,19,19,19,20,20,20,21,21,22,22,23,23,24,25,25,26,26,27,28,29,30,30,31,32,32,33,34,35,35,36,37,38,39,40,41];
succ = [2,3,4,28,14,7,9,5,8,20,21,6,13,22,6,34,11,18,12,26,10,13,37,17,30,15,25,19,30,35,16,23,33,27,30,37,29,40,18,22,24,26,29,24,18,19,24,21,29,23,33,34,35,25,26,28,25,37,27,23,38,39,31,34,31,27,39,32,33,39,31,32,36,41,38,36,38,41,36,40,41,40,42,42,42];

nUnrels = 432;
unpred = [2,2,2,2,2,2,2,2,2,2,2,2,2,2,2,2,2,2,3,3,3,3,3,3,4,4,4,4,4,4,4,4,4,4,4,4,4,4,4,5,5,5,5,5,5,5,5,5,5,5,5,5,5,5,6,6,6,6,6,6,6,6,6,6,6,6,6,6,6,6,6,6,6,6,7,7,7,7,7,7,7,7,7,7,7,7,7,7,7,7,7,8,8,8,8,8,8,8,8,8,8,8,8,8,8,8,8,8,9,9,9,9,9,9,9,9,9,10,10,10,10,10,10,10,10,10,10,10,10,10,10,10,10,10,10,10,11,11,11,11,11,11,11,11,11,11,11,11,11,11,11,11,11,12,12,12,12,12,12,12,12,12,12,12,12,12,12,12,12,12,12,12,12,12,12,12,12,12,13,13,13,13,13,13,13,13,13,13,13,13,13,13,13,13,13,13,13,14,14,14,14,14,14,14,14,14,14,14,14,14,14,14,14,14,14,14,14,14,14,15,15,15,15,15,15,15,15,15,16,16,16,16,16,16,16,16,16,16,16,16,16,16,17,17,17,17,17,17,17,18,18,18,18,18,18,18,18,18,18,18,19,19,19,19,19,19,19,19,19,19,19,19,19,19,19,20,20,20,20,20,20,20,20,21,21,21,21,21,21,21,21,21,21,21,21,22,22,22,22,22,22,22,22,22,22,22,22,23,23,23,23,23,23,23,23,23,23,23,23,23,23,23,24,24,24,24,24,24,24,24,24,24,24,24,24,24,25,25,25,25,25,25,25,25,25,25,25,26,26,26,26,26,26,26,26,26,27,27,27,27,27,27,27,27,27,27,28,28,28,28,28,28,28,28,28,28,29,29,29,29,29,29,29,29,29,29,29,30,30,30,30,30,31,31,31,31,31,31,31,31,32,32,32,32,32,32,33,33,33,33,33,33,34,34,34,34,34,35,35,35,36,36,36,36,37,37,37,38,38,39,39,40];
unsucc = [3,4,5,6,8,9,10,11,13,15,16,17,19,20,22,24,30,35,4,7,12,14,20,28,5,7,8,9,10,12,13,14,15,17,18,19,22,23,30,7,8,9,10,12,14,15,17,18,19,20,21,25,28,37,7,8,9,10,12,13,14,15,17,18,19,20,21,22,23,25,28,30,33,37,8,9,10,11,13,14,15,16,17,19,20,22,24,28,30,33,35,9,11,12,14,15,16,17,18,20,21,22,23,24,26,28,29,39,10,11,12,13,14,16,20,26,28,11,12,13,14,15,16,17,18,20,21,22,23,24,26,27,28,29,37,39,12,13,14,15,17,18,19,20,21,22,23,25,28,30,33,34,37,13,14,15,16,17,18,19,20,21,22,24,25,26,27,28,29,30,31,32,33,34,35,36,37,41,14,15,16,17,18,19,20,21,22,23,24,25,26,28,29,34,35,37,39,15,16,17,18,19,20,21,22,23,24,25,26,27,28,30,31,32,33,34,35,36,38,16,17,19,20,26,28,30,33,35,17,18,19,20,21,22,23,25,28,30,33,34,35,37,20,22,26,27,28,30,32,19,20,22,24,26,27,28,30,32,33,35,20,21,22,23,24,25,26,27,28,29,30,31,32,37,39,21,22,23,24,29,30,35,37,22,23,24,26,27,28,29,30,32,33,35,39,24,25,26,28,29,30,31,33,34,35,36,37,24,25,26,27,28,29,30,31,32,33,34,35,36,37,41,25,26,27,28,29,30,32,33,34,35,37,38,39,41,26,27,28,29,30,32,33,35,37,39,41,28,29,30,31,33,34,35,36,37,28,29,30,31,33,34,35,36,37,39,29,30,31,32,34,35,37,38,39,41,30,31,32,33,34,35,36,37,38,40,41,33,34,35,37,39,32,33,34,35,37,38,39,41,33,34,35,36,37,39,34,35,37,38,39,41,35,36,37,39,41,37,38,39,37,38,39,41,38,39,40,39,41,40,41,41];

USEFUL_RES = [{},
	{2,3,4,8,9,10,12,14,16,17,18,19,20,21,22,24,25,26,27,28,29,30},
	{2,3,4,7,8,9,10,11,12,13,14,15,16,17,18,19,20,21,22,23,24,25,26,29,30},
	{1,2,3,4,5,6,7,8,10,11,12,14,15,16,17,18,19,20,21,22,23,24,25,26,27,28,29,30},
	{1,2,3,4,5,6,7,10,11,12,13,14,15,16,17,18,19,20,21,22,23,25,29,30},
	{1,2,3,4,5,6,7,8,10,11,12,14,15,16,17,18,19,20,21,22,23,24,25,26,27,28,29,30},
	{1,2,3,4,5,6,7,8,9,10,11,12,14,15,16,17,18,19,21,22,23,24,25,26,29,30},
	{1,2,3,4,5,6,7,10,11,12,13,14,15,16,17,18,19,20,21,22,23,25,29,30},
	{2,3,4,7,8,9,10,11,12,13,14,15,16,17,18,19,20,21,22,23,24,25,26,29,30},
	{2,3,4,7,8,9,10,11,12,13,14,15,16,17,18,19,20,21,22,23,24,25,26,29,30},
	{1,2,3,4,5,6,7,8,10,11,12,14,15,16,17,18,19,20,21,22,23,24,25,26,27,28,29,30},
	{1,2,3,4,5,6,7,8,9,10,11,12,14,15,16,17,18,19,21,22,23,24,25,26,29,30},
	{1,2,3,4,5,6,7,8,9,10,11,12,14,15,16,17,18,19,21,22,23,24,25,26,29,30},
	{2,4,7,8,10,11,12,13,14,15,16,17,18,19,20,21,22,23,24,25,26,27,28,29,30},
	{2,3,4,7,8,9,10,11,12,13,14,15,16,17,18,19,20,21,22,23,24,25,26,29,30},
	{1,2,3,4,5,6,7,8,10,11,12,14,15,16,17,18,19,20,21,22,23,24,25,26,27,28,29,30},
	{1,2,3,4,5,6,7,10,11,12,13,14,15,16,17,18,19,20,21,22,23,25,29,30},
	{1,2,3,4,5,6,7,8,10,11,12,14,15,16,17,18,19,20,21,22,23,24,25,26,27,28,29,30},
	{2,4,7,8,10,11,12,13,14,15,16,17,18,19,20,21,22,23,24,25,26,27,28,29,30},
	{1,2,3,4,5,6,7,8,9,10,11,12,14,15,16,17,18,19,21,22,23,24,25,26,29,30},
	{1,2,3,4,5,6,7,10,11,12,13,14,15,16,17,18,19,20,21,22,23,25,29,30},
	{2,3,4,8,9,10,12,14,16,17,18,19,20,21,22,24,25,26,27,28,29,30},
	{2,3,4,8,9,10,12,14,16,17,18,19,20,21,22,24,25,26,27,28,29,30},
	{2,3,4,8,9,10,12,14,16,17,18,19,20,21,22,24,25,26,27,28,29,30},
	{2,3,4,7,8,9,10,11,12,13,14,15,16,17,18,19,20,21,22,23,24,25,26,29,30},
	{1,2,3,4,5,6,7,10,11,12,13,14,15,16,17,18,19,20,21,22,23,25,29,30},
	{2,4,7,8,10,11,12,13,14,15,16,17,18,19,20,21,22,23,24,25,26,27,28,29,30},
	{1,2,3,4,5,6,7,8,10,11,12,14,15,16,17,18,19,20,21,22,23,24,25,26,27,28,29,30},
	{1,2,3,4,5,6,7,8,9,10,11,12,14,15,16,17,18,19,21,22,23,24,25,26,29,30},
	{2,3,4,7,8,9,10,11,12,13,14,15,16,17,18,19,20,21,22,23,24,25,26,29,30},
	{2,3,4,8,9,10,12,14,16,17,18,19,20,21,22,24,25,26,27,28,29,30},
	{1,2,3,4,5,6,7,8,9,10,11,12,14,15,16,17,18,19,21,22,23,24,25,26,29,30},
	{1,2,3,4,5,6,7,8,9,10,11,12,14,15,16,17,18,19,21,22,23,24,25,26,29,30},
	{1,2,3,4,5,6,7,8,10,11,12,14,15,16,17,18,19,20,21,22,23,24,25,26,27,28,29,30},
	{1,2,3,4,5,6,7,10,11,12,13,14,15,16,17,18,19,20,21,22,23,25,29,30},
	{1,2,3,4,5,6,7,10,11,12,13,14,15,16,17,18,19,20,21,22,23,25,29,30},
	{1,2,3,4,5,6,7,10,11,12,13,14,15,16,17,18,19,20,21,22,23,25,29,30},
	{1,2,3,4,5,6,7,8,10,11,12,14,15,16,17,18,19,20,21,22,23,24,25,26,27,28,29,30},
	{2,3,4,7,8,9,10,11,12,13,14,15,16,17,18,19,20,21,22,23,24,25,26,29,30},
	{1,2,3,4,5,6,7,8,9,10,11,12,14,15,16,17,18,19,21,22,23,24,25,26,29,30},
	{2,3,4,7,8,9,10,11,12,13,14,15,16,17,18,19,20,21,22,23,24,25,26,29,30},
	{}];

POTENTIAL_ACT = [{4,5,6,7,8,11,12,13,16,17,18,20,21,26,28,29,32,33,34,35,36,37,38,40},
	{2,3,4,5,6,7,8,9,10,11,12,13,14,15,16,17,18,19,20,21,22,23,24,25,26,27,28,29,30,31,32,33,34,35,36,37,38,39,40,41},
	{2,3,4,5,6,7,8,9,10,11,12,13,15,16,17,18,20,21,22,23,24,25,26,28,29,30,31,32,33,34,35,36,37,38,39,40,41},
	{2,3,4,5,6,7,8,9,10,11,12,13,14,15,16,17,18,19,20,21,22,23,24,25,26,27,28,29,30,31,32,33,34,35,36,37,38,39,40,41},
	{4,5,6,7,8,11,12,13,16,17,18,20,21,26,28,29,32,33,34,35,36,37,38,40},
	{4,5,6,7,8,11,12,13,16,17,18,20,21,26,28,29,32,33,34,35,36,37,38,40},
	{3,4,5,6,7,8,9,10,11,12,13,14,15,16,17,18,19,20,21,25,26,27,28,29,30,32,33,34,35,36,37,38,39,40,41},
	{2,3,4,6,7,9,10,11,12,13,14,15,16,18,19,20,22,23,24,25,27,28,29,30,31,32,33,34,38,39,40,41},
	{2,3,7,9,10,12,13,15,20,22,23,24,25,29,30,31,32,33,39,40,41},
	{2,3,4,5,6,7,8,9,10,11,12,13,14,15,16,17,18,19,20,21,22,23,24,25,26,27,28,29,30,31,32,33,34,35,36,37,38,39,40,41},
	{3,4,5,6,7,8,9,10,11,12,13,14,15,16,17,18,19,20,21,25,26,27,28,29,30,32,33,34,35,36,37,38,39,40,41},
	{2,3,4,5,6,7,8,9,10,11,12,13,14,15,16,17,18,19,20,21,22,23,24,25,26,27,28,29,30,31,32,33,34,35,36,37,38,39,40,41},
	{3,5,8,9,10,14,15,17,19,21,25,26,27,30,35,36,37,39,41},
	{2,3,4,5,6,7,8,9,10,11,12,13,14,15,16,17,18,19,20,21,22,23,24,25,26,27,28,29,30,31,32,33,34,35,36,37,38,39,40,41},
	{3,4,5,6,7,8,9,10,11,12,13,14,15,16,17,18,19,20,21,25,26,27,28,29,30,32,33,34,35,36,37,38,39,40,41},
	{2,3,4,5,6,7,8,9,10,11,12,13,14,15,16,17,18,19,20,21,22,23,24,25,26,27,28,29,30,31,32,33,34,35,36,37,38,39,40,41},
	{2,3,4,5,6,7,8,9,10,11,12,13,14,15,16,17,18,19,20,21,22,23,24,25,26,27,28,29,30,31,32,33,34,35,36,37,38,39,40,41},
	{2,3,4,5,6,7,8,9,10,11,12,13,14,15,16,17,18,19,20,21,22,23,24,25,26,27,28,29,30,31,32,33,34,35,36,37,38,39,40,41},
	{2,3,4,5,6,7,8,9,10,11,12,13,14,15,16,17,18,19,20,21,22,23,24,25,26,27,28,29,30,31,32,33,34,35,36,37,38,39,40,41},
	{2,3,4,5,6,8,9,10,11,14,15,16,17,18,19,21,22,23,24,25,26,27,28,30,31,34,35,36,37,38,39,41},
	{2,3,4,5,6,7,8,9,10,11,12,13,14,15,16,17,18,19,20,21,22,23,24,25,26,27,28,29,30,31,32,33,34,35,36,37,38,39,40,41},
	{2,3,4,5,6,7,8,9,10,11,12,13,14,15,16,17,18,19,20,21,22,23,24,25,26,27,28,29,30,31,32,33,34,35,36,37,38,39,40,41},
	{3,4,5,6,7,8,9,10,11,12,13,14,15,16,17,18,19,20,21,25,26,27,28,29,30,32,33,34,35,36,37,38,39,40,41},
	{2,3,4,6,7,9,10,11,12,13,14,15,16,18,19,20,22,23,24,25,27,28,29,30,31,32,33,34,38,39,40,41},
	{2,3,4,5,6,7,8,9,10,11,12,13,14,15,16,17,18,19,20,21,22,23,24,25,26,27,28,29,30,31,32,33,34,35,36,37,38,39,40,41},
	{2,3,4,6,7,9,10,11,12,13,14,15,16,18,19,20,22,23,24,25,27,28,29,30,31,32,33,34,38,39,40,41},
	{2,4,6,11,14,16,18,19,22,23,24,27,28,31,34,38},
	{2,4,6,11,14,16,18,19,22,23,24,27,28,31,34,38},
	{2,3,4,5,6,7,8,9,10,11,12,13,14,15,16,17,18,19,20,21,22,23,24,25,26,27,28,29,30,31,32,33,34,35,36,37,38,39,40,41},
	{2,3,4,5,6,7,8,9,10,11,12,13,14,15,16,17,18,19,20,21,22,23,24,25,26,27,28,29,30,31,32,33,34,35,36,37,38,39,40,41}];
